Route #1: 12 45 52 22 54 55 56 15 58
Route #2: 13 28 5 21 63
Route #3: 23 8 59 24 29 7
Route #4: 20 19 1 49 35 11
Route #5: 46 50 14 4 39 53
Route #6: 42 44 40 36 6 34 64 60
Route #7: 3 57 30 61 62 9
Route #8: 48 25 26 2 66 41 16 43 17
Route #9: 38 10 27 51 32 37 65
Route #10: 31 18 33 47
Cost 1132